Traveling Salesman Problem/TSP_generados/Aleatorio1621103279_7.tsp
NAME: Aleatorio1621103279_7.tsp
COMMENT: Randomly generated scenario
TYPE: TSP
DIMENSION: 7
EDGE_WEIGHT_TYPE: ATT
NODE_COORD_SECTION
1 37.51 5.99
2 21.98 12.36
3 7.03 5.05
4 16.16 29.68
5 16.17 0.33
6 35.41 8.25
7 22.32 11.01
