Traveling Salesman Problem/TSP_generados/Aleatorio1621103279_7.opt.tour
NAME: Aleatorio1621103279_7.opt.tour
COMMENT: Optimal solution for Aleatorio1621103279_7 (94.75908237874796)
TYPE: TOUR
DIMENSION: 7
TOUR_SECTION
1 5 3 4 2 7 6
-1
EOF
